\ Model Ore Mixing Problem
\ LP format - for model browsing. Use MPS format to capture full model detail.
Minimize
  71.78750897343858 a_max_00 + 47.30368968779565 a_max_01
   + 29.02757619738751 a_max_02 + 177.3049645390071 a_max_03
   + 833.3333333333334 a_max_10 + 1315.789473684211 a_max_11
   + 5882.352941176473 a_max_12 + 1204.819277108434 a_max_13
   + 2439.024390243902 a_max_20 + 2272.727272727273 a_max_21
   + 3333.333333333333 a_max_22 + 3333.333333333333 a_max_23
   + 3571.428571428571 a_max_30 + 3225.806451612903 a_max_31
   + 3571.428571428571 a_max_32 + 5555.555555555556 a_max_33
   + 2272.727272727273 a_max_40 + 5555.555555555555 a_max_41
   + 1724.137931034483 a_max_42 + 1960.78431372549 a_max_43
   + 1562.5 a_max_50 + 1886.792452830188 a_max_51
   + 763.3587786259542 a_max_52 + 775.1937984496124 a_max_53
   + 32.18538783392341 a_min_00 + 41.91114836546522 a_min_01
   + 94.78672985781992 a_min_02 + 25.40650406504065 a_min_03
   + 3333.333333333333 a_min_10 + 1351.351351351351 a_min_11
   + 751.8796992481202 a_min_12 + 1492.537313432836 a_min_13
   + 11111.11111111111 a_min_20 + 16666.66666666667 a_min_21
   + 5000 a_min_22 + 5000 a_min_23 + 4545.454545454546 a_min_30
   + 5263.157894736843 a_min_31 + 4545.454545454546 a_min_32
   + 3125 a_min_33 + 1785.714285714286 a_min_40
   + 1219.512195121951 a_min_41 + 2380.952380952381 a_min_42
   + 2040.816326530612 a_min_43 + 1162.790697674418 a_min_50
   + 1030.927835051547 a_min_51 + 5263.157894736843 a_min_52
   + 4761.904761904762 a_min_53 + 0.0717875089734386 b_min_00
   + 0.0473036896877956 b_min_01 + 0.0947867298578199 b_min_02
   + 0.1773049645390071 b_min_03 + 3.333333333333333 b_min_10
   + 1.351351351351351 b_min_11 + 5.882352941176473 b_min_12
   + 1.492537313432836 b_min_13 + 11.11111111111111 b_min_20
   + 16.66666666666667 b_min_21 + 5 b_min_22 + 5 b_min_23
   + 4.545454545454546 b_min_30 + 5.263157894736842 b_min_31
   + 4.545454545454546 b_min_32 + 5.555555555555555 b_min_33
   + 2.272727272727273 b_min_40 + 5.555555555555554 b_min_41
   + 2.380952380952381 b_min_42 + 2.040816326530612 b_min_43
   + 1.5625 b_min_50 + 1.886792452830188 b_min_51
   + 5.263157894736843 b_min_52 + 4.761904761904763 b_min_53
   + 0.0717875089734386 b_max_0 + 0.0473036896877956 b_max_0
   + 0.0947867298578199 b_max_0 + 0.1773049645390071 b_max_0
   + 3.333333333333333 b_max_1 + 1.351351351351351 b_max_1
   + 5.882352941176473 b_max_1 + 1.492537313432836 b_max_1
   + 11.11111111111111 b_max_2 + 16.66666666666667 b_max_2 + 5 b_max_2
   + 5 b_max_2 + 4.545454545454546 b_max_3 + 5.263157894736842 b_max_3
   + 4.545454545454546 b_max_3 + 5.555555555555555 b_max_3
   + 2.272727272727273 b_max_4 + 5.555555555555554 b_max_4
   + 2.380952380952381 b_max_4 + 2.040816326530612 b_max_4 + 1.5625 b_max_5
   + 1.886792452830188 b_max_5 + 5.263157894736843 b_max_5
   + 4.761904761904763 b_max_5
Subject To
 demand_constr_0: x_00 + x_10 + x_20 + x_30 + x_40 + x_50 = 968
 capacity_constr_00: x_00 <= 542
 capacity_constr_10: x_10 <= 576
 capacity_constr_20: x_20 <= 610
 capacity_constr_30: x_30 <= 453
 capacity_constr_40: x_40 <= 466
 capacity_constr_50: x_50 <= 625
 min_quality_constr_00: - 5.48 x_00 - 0.8 x_10 + 16.53 x_20 + 17.19 x_30
   + 33.63 x_40 + 11.73 x_50 + 968 a_min_00 >= -0
 max_quality_constr_00: - 50.48 x_00 - 45.8 x_10 - 28.47 x_20 - 27.81 x_30
   - 11.37 x_40 - 33.27 x_50 - 968 a_max_00 <= -0
 goal_quality_constr_00: - 36.55 x_00 - 31.87 x_10 - 14.54 x_20
   - 13.88 x_30 + 2.56 x_40 - 19.34 x_50 + b_min_00 - b_max_0 = -0
 min_quality_constr_10: 1.39 x_00 + 1.44 x_10 + 0.07 x_20 + 1.6 x_30
   + 1.04 x_40 + 1.68 x_50 + 968 a_min_10 >= -0
 max_quality_constr_10: - 0.11 x_00 - 0.06 x_10 - 1.43 x_20 + 0.1 x_30
   - 0.46 x_40 + 0.18 x_50 - 968 a_max_10 <= -0
 goal_quality_constr_10: 1.09 x_00 + 1.14 x_10 - 0.23 x_20 + 1.3 x_30
   + 0.74 x_40 + 1.38 x_50 + b_min_10 - b_max_1 = -0
 min_quality_constr_20: 4.03 x_00 + 4.37 x_10 + 0.68 x_20 + 2.99 x_30
   + 4.53 x_40 + 3.41 x_50 + 968 a_min_20 >= -0
 max_quality_constr_20: 3.53 x_00 + 3.87 x_10 + 0.18 x_20 + 2.49 x_30
   + 4.03 x_40 + 2.91 x_50 - 968 a_max_20 <= -0
 goal_quality_constr_20: 3.94 x_00 + 4.28 x_10 + 0.59 x_20 + 2.9 x_30
   + 4.44 x_40 + 3.32 x_50 + b_min_20 - b_max_2 = -0
 min_quality_constr_30: 2.61 x_00 + 0.07 x_10 + 5.97 x_20 + 2.14 x_30
   + 1.83 x_40 + 4.89 x_50 + 968 a_min_30 >= -0
 max_quality_constr_30: 2.11 x_00 - 0.43 x_10 + 5.47 x_20 + 1.64 x_30
   + 1.33 x_40 + 4.39 x_50 - 968 a_max_30 <= -0
 goal_quality_constr_30: 2.39 x_00 - 0.15 x_10 + 5.75 x_20 + 1.92 x_30
   + 1.61 x_40 + 4.67 x_50 + b_min_30 - b_max_3 = -0
 min_quality_constr_40: 0.46 x_00 + 0.48 x_10 + 0.64 x_20 + 0.8 x_30
   + 0.42 x_40 + 0.29 x_50 + 968 a_min_40 >= -0
 max_quality_constr_40: - 0.54 x_00 - 0.52 x_10 - 0.36 x_20 - 0.2 x_30
   - 0.58 x_40 - 0.71 x_50 - 968 a_max_40 <= -0
 goal_quality_constr_40: - 0.1 x_00 - 0.08 x_10 + 0.08 x_20 + 0.24 x_30
   - 0.14 x_40 - 0.27 x_50 + b_min_40 - b_max_4 = -0
 min_quality_constr_50: 2.01 x_00 + 0.62 x_10 + 2.1 x_20 + 1.48 x_30
   + 0.22 x_40 + 1.3 x_50 + 968 a_min_50 >= -0
 max_quality_constr_50: 0.51 x_00 - 0.88 x_10 + 0.6 x_20 - 0.02 x_30
   - 1.28 x_40 - 0.2 x_50 - 968 a_max_50 <= -0
 goal_quality_constr_50: 1.15 x_00 - 0.24 x_10 + 1.24 x_20 + 0.62 x_30
   - 0.64 x_40 + 0.44 x_50 + b_min_50 - b_max_5 = -0
 demand_constr_1: x_01 + x_11 + x_21 + x_31 + x_41 + x_51 = 1023
 capacity_constr_01: x_01 <= 542
 capacity_constr_11: x_11 <= 576
 capacity_constr_21: x_21 <= 610
 capacity_constr_31: x_31 <= 453
 capacity_constr_41: x_41 <= 466
 capacity_constr_51: x_51 <= 625
 min_quality_constr_01: - 5.48 x_01 - 0.8 x_11 + 16.53 x_21 + 17.19 x_31
   + 33.63 x_41 + 11.73 x_51 + 1023 a_min_01 >= -0
 max_quality_constr_01: - 50.48 x_01 - 45.8 x_11 - 28.47 x_21 - 27.81 x_31
   - 11.37 x_41 - 33.27 x_51 - 1023 a_max_01 <= -0
 goal_quality_constr_01: - 29.34 x_01 - 24.66 x_11 - 7.33 x_21 - 6.67 x_31
   + 9.77 x_41 - 12.13 x_51 + b_min_01 - b_max_0 = -0
 min_quality_constr_11: 1.39 x_01 + 1.44 x_11 + 0.07 x_21 + 1.6 x_31
   + 1.04 x_41 + 1.68 x_51 + 1023 a_min_11 >= -0
 max_quality_constr_11: - 0.11 x_01 - 0.06 x_11 - 1.43 x_21 + 0.1 x_31
   - 0.46 x_41 + 0.18 x_51 - 1023 a_max_11 <= -0
 goal_quality_constr_11: 0.65 x_01 + 0.7 x_11 - 0.67 x_21 + 0.86 x_31
   + 0.3 x_41 + 0.94 x_51 + b_min_11 - b_max_1 = -0
 min_quality_constr_21: 4.03 x_01 + 4.37 x_11 + 0.68 x_21 + 2.99 x_31
   + 4.53 x_41 + 3.41 x_51 + 1023 a_min_21 >= -0
 max_quality_constr_21: 3.53 x_01 + 3.87 x_11 + 0.18 x_21 + 2.49 x_31
   + 4.03 x_41 + 2.91 x_51 - 1023 a_max_21 <= -0
 goal_quality_constr_21: 3.97 x_01 + 4.31 x_11 + 0.62 x_21 + 2.93 x_31
   + 4.47 x_41 + 3.35 x_51 + b_min_21 - b_max_2 = -0
 min_quality_constr_31: 2.61 x_01 + 0.07 x_11 + 5.97 x_21 + 2.14 x_31
   + 1.83 x_41 + 4.89 x_51 + 1023 a_min_31 >= -0
 max_quality_constr_31: 2.11 x_01 - 0.43 x_11 + 5.47 x_21 + 1.64 x_31
   + 1.33 x_41 + 4.39 x_51 - 1023 a_max_31 <= -0
 goal_quality_constr_31: 2.42 x_01 - 0.12 x_11 + 5.78 x_21 + 1.95 x_31
   + 1.64 x_41 + 4.7 x_51 + b_min_31 - b_max_3 = -0
 min_quality_constr_41: 0.46 x_01 + 0.48 x_11 + 0.64 x_21 + 0.8 x_31
   + 0.42 x_41 + 0.29 x_51 + 1023 a_min_41 >= -0
 max_quality_constr_41: - 0.54 x_01 - 0.52 x_11 - 0.36 x_21 - 0.2 x_31
   - 0.58 x_41 - 0.71 x_51 - 1023 a_max_41 <= -0
 goal_quality_constr_41: - 0.36 x_01 - 0.34 x_11 - 0.18 x_21 - 0.02 x_31
   - 0.4 x_41 - 0.53 x_51 + b_min_41 - b_max_4 = -0
 min_quality_constr_51: 2.01 x_01 + 0.62 x_11 + 2.1 x_21 + 1.48 x_31
   + 0.22 x_41 + 1.3 x_51 + 1023 a_min_51 >= -0
 max_quality_constr_51: 0.51 x_01 - 0.88 x_11 + 0.6 x_21 - 0.02 x_31
   - 1.28 x_41 - 0.2 x_51 - 1023 a_max_51 <= -0
 goal_quality_constr_51: 1.04 x_01 - 0.35 x_11 + 1.13 x_21 + 0.51 x_31
   - 0.75 x_41 + 0.33 x_51 + b_min_51 - b_max_5 = -0
 demand_constr_2: x_02 + x_12 + x_22 + x_32 + x_42 + x_52 = 985
 capacity_constr_02: x_02 <= 542
 capacity_constr_12: x_12 <= 576
 capacity_constr_22: x_22 <= 610
 capacity_constr_32: x_32 <= 453
 capacity_constr_42: x_42 <= 466
 capacity_constr_52: x_52 <= 625
 min_quality_constr_02: - 5.48 x_02 - 0.8 x_12 + 16.53 x_22 + 17.19 x_32
   + 33.63 x_42 + 11.73 x_52 + 985 a_min_02 >= -0
 max_quality_constr_02: - 50.48 x_02 - 45.8 x_12 - 28.47 x_22 - 27.81 x_32
   - 11.37 x_42 - 33.27 x_52 - 985 a_max_02 <= -0
 goal_quality_constr_02: - 16.03 x_02 - 11.35 x_12 + 5.98 x_22 + 6.64 x_32
   + 23.08 x_42 + 1.18 x_52 + b_min_02 - b_max_0 = -0
 min_quality_constr_12: 1.39 x_02 + 1.44 x_12 + 0.07 x_22 + 1.6 x_32
   + 1.04 x_42 + 1.68 x_52 + 985 a_min_12 >= -0
 max_quality_constr_12: - 0.11 x_02 - 0.06 x_12 - 1.43 x_22 + 0.1 x_32
   - 0.46 x_42 + 0.18 x_52 - 985 a_max_12 <= -0
 goal_quality_constr_12: 0.06 x_02 + 0.11 x_12 - 1.26 x_22 + 0.27 x_32
   - 0.29 x_42 + 0.35 x_52 + b_min_12 - b_max_1 = -0
 min_quality_constr_22: 4.03 x_02 + 4.37 x_12 + 0.68 x_22 + 2.99 x_32
   + 4.53 x_42 + 3.41 x_52 + 985 a_min_22 >= -0
 max_quality_constr_22: 3.53 x_02 + 3.87 x_12 + 0.18 x_22 + 2.49 x_32
   + 4.03 x_42 + 2.91 x_52 - 985 a_max_22 <= -0
 goal_quality_constr_22: 3.83 x_02 + 4.17 x_12 + 0.48 x_22 + 2.79 x_32
   + 4.33 x_42 + 3.21 x_52 + b_min_22 - b_max_2 = -0
 min_quality_constr_32: 2.61 x_02 + 0.07 x_12 + 5.97 x_22 + 2.14 x_32
   + 1.83 x_42 + 4.89 x_52 + 985 a_min_32 >= -0
 max_quality_constr_32: 2.11 x_02 - 0.43 x_12 + 5.47 x_22 + 1.64 x_32
   + 1.33 x_42 + 4.39 x_52 - 985 a_max_32 <= -0
 goal_quality_constr_32: 2.39 x_02 - 0.15 x_12 + 5.75 x_22 + 1.92 x_32
   + 1.61 x_42 + 4.67 x_52 + b_min_32 - b_max_3 = -0
 min_quality_constr_42: 0.46 x_02 + 0.48 x_12 + 0.64 x_22 + 0.8 x_32
   + 0.42 x_42 + 0.29 x_52 + 985 a_min_42 >= -0
 max_quality_constr_42: - 0.54 x_02 - 0.52 x_12 - 0.36 x_22 - 0.2 x_32
   - 0.58 x_42 - 0.71 x_52 - 985 a_max_42 <= -0
 goal_quality_constr_42: 0.04 x_02 + 0.06 x_12 + 0.22 x_22 + 0.38 x_32
   - 0.13 x_52 + b_min_42 - b_max_4 = -0
 min_quality_constr_52: 2.01 x_02 + 0.62 x_12 + 2.1 x_22 + 1.48 x_32
   + 0.22 x_42 + 1.3 x_52 + 985 a_min_52 >= -0
 max_quality_constr_52: 0.51 x_02 - 0.88 x_12 + 0.6 x_22 - 0.02 x_32
   - 1.28 x_42 - 0.2 x_52 - 985 a_max_52 <= -0
 goal_quality_constr_52: 1.82 x_02 + 0.43 x_12 + 1.91 x_22 + 1.29 x_32
   + 0.03 x_42 + 1.11 x_52 + b_min_52 - b_max_5 = -0
 demand_constr_3: x_03 + x_13 + x_23 + x_33 + x_43 + x_53 = 1133
 capacity_constr_03: x_03 <= 542
 capacity_constr_13: x_13 <= 576
 capacity_constr_23: x_23 <= 610
 capacity_constr_33: x_33 <= 453
 capacity_constr_43: x_43 <= 466
 capacity_constr_53: x_53 <= 625
 min_quality_constr_03: - 5.48 x_03 - 0.8 x_13 + 16.53 x_23 + 17.19 x_33
   + 33.63 x_43 + 11.73 x_53 + 1133 a_min_03 >= -0
 max_quality_constr_03: - 50.48 x_03 - 45.8 x_13 - 28.47 x_23 - 27.81 x_33
   - 11.37 x_43 - 33.27 x_53 - 1133 a_max_03 <= -0
 goal_quality_constr_03: - 44.84 x_03 - 40.16 x_13 - 22.83 x_23
   - 22.17 x_33 - 5.73 x_43 - 27.63 x_53 + b_min_03 - b_max_0 = -0
 min_quality_constr_13: 1.39 x_03 + 1.44 x_13 + 0.07 x_23 + 1.6 x_33
   + 1.04 x_43 + 1.68 x_53 + 1133 a_min_13 >= -0
 max_quality_constr_13: - 0.11 x_03 - 0.06 x_13 - 1.43 x_23 + 0.1 x_33
   - 0.46 x_43 + 0.18 x_53 - 1133 a_max_13 <= -0
 goal_quality_constr_13: 0.72 x_03 + 0.77 x_13 - 0.6 x_23 + 0.93 x_33
   + 0.37 x_43 + 1.01 x_53 + b_min_13 - b_max_1 = -0
 min_quality_constr_23: 4.03 x_03 + 4.37 x_13 + 0.68 x_23 + 2.99 x_33
   + 4.53 x_43 + 3.41 x_53 + 1133 a_min_23 >= -0
 max_quality_constr_23: 3.53 x_03 + 3.87 x_13 + 0.18 x_23 + 2.49 x_33
   + 4.03 x_43 + 2.91 x_53 - 1133 a_max_23 <= -0
 goal_quality_constr_23: 3.83 x_03 + 4.17 x_13 + 0.48 x_23 + 2.79 x_33
   + 4.33 x_43 + 3.21 x_53 + b_min_23 - b_max_2 = -0
 min_quality_constr_33: 2.61 x_03 + 0.07 x_13 + 5.97 x_23 + 2.14 x_33
   + 1.83 x_43 + 4.89 x_53 + 1133 a_min_33 >= -0
 max_quality_constr_33: 2.11 x_03 - 0.43 x_13 + 5.47 x_23 + 1.64 x_33
   + 1.33 x_43 + 4.39 x_53 - 1133 a_max_33 <= -0
 goal_quality_constr_33: 2.29 x_03 - 0.25 x_13 + 5.65 x_23 + 1.82 x_33
   + 1.51 x_43 + 4.57 x_53 + b_min_33 - b_max_3 = -0
 min_quality_constr_43: 0.46 x_03 + 0.48 x_13 + 0.64 x_23 + 0.8 x_33
   + 0.42 x_43 + 0.29 x_53 + 1133 a_min_43 >= -0
 max_quality_constr_43: - 0.54 x_03 - 0.52 x_13 - 0.36 x_23 - 0.2 x_33
   - 0.58 x_43 - 0.71 x_53 - 1133 a_max_43 <= -0
 goal_quality_constr_43: - 0.03 x_03 - 0.01 x_13 + 0.15 x_23 + 0.31 x_33
   - 0.07 x_43 - 0.2 x_53 + b_min_43 - b_max_4 = -0
 min_quality_constr_53: 2.01 x_03 + 0.62 x_13 + 2.1 x_23 + 1.48 x_33
   + 0.22 x_43 + 1.3 x_53 + 1133 a_min_53 >= -0
 max_quality_constr_53: 0.51 x_03 - 0.88 x_13 + 0.6 x_23 - 0.02 x_33
   - 1.28 x_43 - 0.2 x_53 - 1133 a_max_53 <= -0
 goal_quality_constr_53: 1.8 x_03 + 0.41 x_13 + 1.89 x_23 + 1.27 x_33
   + 0.01 x_43 + 1.09 x_53 + b_min_53 - b_max_5 = -0
Bounds
End
